; benchmark generated from python API
(set-info :status unknown)
(declare-fun C () Real)
(declare-fun S_4 () Real)
(declare-fun A_3 () Real)
(declare-fun L_3 () Real)
(declare-fun S_0 () Real)
(declare-fun L_0 () Real)
(declare-fun A_0 () Real)
(declare-fun L_4 () Real)
(declare-fun A_4 () Real)
(declare-fun S_3 () Real)
(declare-fun S_1 () Real)
(declare-fun S_2 () Real)
(declare-fun B () Real)
(declare-fun A_1 () Real)
(declare-fun L_1 () Real)
(declare-fun L_2 () Real)
(declare-fun A_2 () Real)
(assert
 (let (($x34 (>= L_0 0.0)))
 (let (($x851 (>= C 5.0)))
 (let ((?x225 (* (- 1.0) B)))
 (let ((?x285 (* (- 1.0) L_4)))
 (let ((?x1065 (* (- 1.0) S_0)))
 (let ((?x1064 (* (- 5.0) C)))
 (let (($x1094 (<= (+ (* (- 1.0) L_0) A_1 (* (- 1.0) A_4) (* 3.0 C) L_4) 0.0)))
 (let (($x51 (= L_1 L_0)))
 (let (($x865 (not $x51)))
 (let (($x445 (<= 0.0 (+ L_3 (* (- 1.0) A_3) A_4 (* (- 1.0) C) ?x285 ?x225))))
 (let (($x81 (= L_4 L_3)))
 (let (($x8313 (or $x81 $x445 (<= (+ (* (- 1.0) A_4) (* 3.0 C) S_1 L_4 B) 0.0))))
 (let (($x1088 (<= (+ (* (- 1.0) A_0) L_0 A_4 (* (- 4.0) C) ?x285 ?x225) 0.0)))
 (let (($x5747 (or $x81 $x445 (<= (+ (* (- 1.0) A_4) (* 2.0 C) S_2 L_4 B) 0.0))))
 (let (($x8343 (or $x81 $x445 (<= (+ (* (- 1.0) A_4) (* 4.0 C) S_0 L_4 B) 0.0))))
 (let (($x2942 (= (+ (* (- 1.0) L_3) A_3 (* (- 1.0) A_4) C L_4 B) 0.0)))
 (let (($x443 (not $x445)))
 (let ((?x922 (* 2.0 C)))
 (let ((?x234 (* (- 1.0) L_1)))
 (let ((?x366 (* (- 1.0) A_3)))
 (let (($x5272 (<= 0.0 (+ L_3 ?x366 ?x234 A_1 ?x922 ?x225))))
 (let (($x1663 (<= (+ (* (- 1.0) L_3) A_4 (* (- 1.0) A_2) (* (- 2.0) C) L_2) 0.0)))
 (let (($x630 (not $x81)))
 (let (($x61 (= L_2 L_1)))
 (let (($x493 (not (<= 0.0 (+ L_1 (* (- 1.0) L_2))))))
 (let (($x8295 (or $x81 $x493 (<= (+ ?x234 (* (- 1.0) A_4) A_2 ?x922 L_4) 0.0))))
 (let (($x1635 (<= (+ A_2 (* (- 1.0) C) (* (- 1.0) S_2) (* (- 1.0) L_2) ?x225) 0.0)))
 (let (($x5697 (or $x61 $x865 (<= (+ (* (- 1.0) L_0) A_1 (* (- 1.0) A_2) C L_2) 0.0))))
 (let (($x8399 (or $x61 $x81 (= (+ (* (- 1.0) A_4) A_2 ?x922 (* (- 1.0) L_2) L_4) 0.0))))
 (let (($x5722 (or $x61 (<= (+ S_4 (* (- 1.0) A_2) (* (- 2.0) C) L_2 B) 0.0))))
 (let ((?x251 (* (- 1.0) L_2)))
 (let ((?x966 (* (- 2.0) C)))
 (let ((?x1086 (* (- 1.0) A_0)))
 (let (($x8734 (or $x51 (<= (+ S_4 L_1 (* (- 1.0) A_1) (* (- 3.0) C) B) 0.0))))
 (let (($x1403 (<= (+ (* (- 1.0) L_3) L_1 (* (- 1.0) A_1) A_4 (* (- 3.0) C)) 0.0)))
 (let (($x6682 (or $x51 (<= (+ L_1 (* (- 1.0) A_1) (* (- 1.0) C) S_2 B) 0.0))))
 (let ((?x752 (+ L_0 ?x234)))
 (let (($x433 (<= 0.0 ?x752)))
 (let (($x8566 (or $x81 $x433 (= (+ ?x234 A_1 (* (- 1.0) A_4) (* 3.0 C) L_4) 0.0) $x5272)))
 (let (($x71 (= L_3 L_2)))
 (let (($x108 (>= S_1 S_0)))
 (let (($x111 (>= S_2 S_1)))
 (let (($x114 (>= S_3 S_2)))
 (let (($x120 (>= A_2 A_1)))
 (let (($x121 (>= A_3 A_2)))
 (and (<= (+ A_3 (* (- 1.0) L_3)) S_4) (<= (+ A_0 (* (- 1.0) L_0)) S_3) $x121 $x120 $x114 $x111 $x108 (not (<= (+ A_1 ?x234) S_3)) (or $x81 (not (<= 0.0 (+ L_3 ?x285)))) (or $x81 (<= (+ S_4 (* (- 1.0) A_4) L_4 B) 0.0)) (or $x51 (not $x433)) (or $x51 (<= (+ L_1 (* (- 1.0) A_1) S_1 B) 0.0)) (<= (+ ?x1086 L_0 ?x234 A_1 (* (- 1.0) C) ?x225) 0.0) $x71 (<= (+ (* (- 1.0) S_3) ?x234 A_1 C ?x225) 0.0) (or $x61 $x493) (<= (+ ?x234 A_1 (* (- 1.0) S_2) ?x225) 0.0) (<= (+ (* (- 1.0) S_3) A_2 ?x251 ?x225) 0.0) (or $x61 $x433 (= (+ ?x234 A_1 (* (- 1.0) A_2) C L_2) 0.0)) (<= (+ ?x234 A_1 ?x966 ?x1065 ?x225) 0.0) (<= (+ ?x234 A_1 (* (- 1.0) C) (* (- 1.0) S_1) ?x225) 0.0) (or $x51 $x443 $x5272) $x8566 $x6682 (or $x81 (<= (+ S_3 (* (- 1.0) A_4) C L_4 B) 0.0)) (or $x51 (<= 0.0 (+ A_1 (* (- 1.0) A_2) C)) (not $x61)) (or $x51 (<= (+ S_3 L_1 (* (- 1.0) A_1) ?x966 B) 0.0)) (or $x51 $x630 $x1403) (or $x51 (<= (+ L_1 (* (- 1.0) A_1) C S_0 B) 0.0)) $x8734 (<= (+ A_2 ?x966 (* (- 1.0) S_1) ?x251 ?x225) 0.0) (or $x61 (<= (+ (* (- 1.0) A_2) S_2 L_2 B) 0.0)) (<= (+ ?x1086 L_0 A_2 ?x966 ?x251 ?x225) 0.0) (<= (+ A_2 (* (- 3.0) C) ?x1065 ?x251 ?x225) 0.0) $x5722 (or $x61 (<= (+ (* (- 1.0) A_2) C S_1 L_2 B) 0.0)) $x8399 (or $x61 (<= (+ (* (- 1.0) A_2) ?x922 S_0 L_2 B) 0.0)) $x5697 $x1635 $x8295 (or $x61 $x630 $x1663) (or $x81 $x445 (not $x5272)) (or $x443 $x2942) $x8343 $x5747 $x1088 (<= (+ A_4 (* (- 4.0) C) (* (- 1.0) S_1) ?x285 ?x225) 0.0) $x8313 (<= (+ A_4 (* (- 3.0) C) (* (- 1.0) S_2) ?x285 ?x225) 0.0) (or $x81 $x445 $x865 $x1094) (<= (+ (* (- 1.0) S_3) A_4 ?x966 ?x285 ?x225) 0.0) (<= (+ A_4 ?x1064 ?x1065 ?x285 ?x225) 0.0) (<= (+ ?x1086 L_0 (* (- 1.0) C) S_1) 0.0) (<= (+ (* (- 1.0) S_3) C S_1) 0.0) (<= (+ ?x966 S_1 ?x1065) 0.0) (<= (+ ?x966 S_2 (* (- 1.0) S_1)) 0.0) (<= (+ ?x1086 L_0 ?x966 S_2) 0.0) (<= (+ (* (- 3.0) C) S_2 ?x1065) 0.0) (<= (+ (* (- 1.0) S_3) ?x922 S_0) 0.0) (<= (+ S_4 (* (- 1.0) S_3) ?x966) 0.0) (<= (+ C (* (- 1.0) S_2) S_0) 0.0) (<= (+ ?x1086 S_3 L_0 (* (- 3.0) C)) 0.0) (<= (+ S_3 ?x966 (* (- 1.0) S_2)) 0.0) (<= (+ S_4 (* (- 3.0) C) (* (- 1.0) S_2)) 0.0) (<= (+ S_3 (* (- 3.0) C) (* (- 1.0) S_1)) 0.0) (<= (+ S_4 (* (- 4.0) C) (* (- 1.0) S_1)) 0.0) (<= (+ S_4 ?x1086 L_0 (* (- 4.0) C)) 0.0) (<= (+ S_3 (* (- 4.0) C) ?x1065) 0.0) (<= (+ S_4 ?x1064 ?x1065) 0.0) $x851 $x34 (<= (+ S_4 (* (- 1.0) A_4) L_4) 0.0) (<= (+ ?x1086 L_0 S_0) 0.0) (<= (+ L_3 ?x366 S_4 (* (- 1.0) C)) 0.0))))))))))))))))))))))))))))))))))))))))))))))))
(check-sat)
